IPOPT.OUT
This is Ipopt version 3.10.0, running with linear solver ma27.

Number of nonzeros in equality constraint Jacobian...:        0
Number of nonzeros in inequality constraint Jacobian.:       48
Number of nonzeros in Lagrangian Hessian.............:        0

Total number of variables............................:        6
                     variables with only lower bounds:        0
                variables with lower and upper bounds:        6
                     variables with only upper bounds:        0
Total number of equality constraints.................:        0
Total number of inequality constraints...............:        8
        inequality constraints with only lower bounds:        0
   inequality constraints with lower and upper bounds:        0
        inequality constraints with only upper bounds:        8

iter    objective    inf_pr   inf_du lg(mu)  ||d||  lg(rg) alpha_du alpha_pr  ls
   0  7.6646550e+00 2.46e+00 1.15e+00   0.0 0.00e+00    -  0.00e+00 0.00e+00   0
   1  9.2762308e+00 1.58e+00 1.01e+01  -0.5 1.48e+00    -  5.31e-01 4.94e-01f  1
   2  9.8800959e+00 7.38e-01 5.89e+00  -0.5 9.41e-01    -  9.83e-01 5.81e-01h  1
   3  1.5171856e+01 3.56e-01 3.84e+01  -0.2 1.69e+00    -  7.95e-01 8.66e-01h  1
   4  1.4501845e+01 2.19e-01 6.47e+00  -0.0 8.92e-01    -  5.70e-01 6.95e-01f  1
   5  1.5241503e+01 1.14e-01 6.31e+00  -0.8 3.70e-01    -  9.87e-01 5.74e-01h  1
   6  1.5552701e+01 8.61e-02 1.32e+01  -2.1 2.18e-01    -  9.97e-01 2.43e-01h  1
   7  1.6377308e+01 3.87e-02 1.52e+01  -2.4 3.68e-01    -  1.00e+00 5.33e-01h  1
   8  1.7264246e+01 0.00e+00 3.38e+00  -3.2 3.41e-01    -  1.00e+00 1.00e+00h  1
   9  1.6968302e+01 5.98e-03 2.31e+00  -2.9 2.33e-01    -  1.00e+00 1.00e+00f  1
iter    objective    inf_pr   inf_du lg(mu)  ||d||  lg(rg) alpha_du alpha_pr  ls
  10  1.6904338e+01 2.35e-03 4.93e-01  -3.4 1.12e-01    -  1.00e+00 9.97e-01h  1
  11  1.6966143e+01 1.73e-04 1.47e-01  -4.4 1.61e-02    -  1.00e+00 9.72e-01h  1
  12  1.6969457e+01 1.99e-04 6.07e-03  -5.8 3.85e-03    -  1.00e+00 1.00e+00h  1
  13  1.6974164e+01 3.26e-04 2.80e-02  -7.7 1.55e-03    -  1.00e+00 1.00e+00h  1
  14  1.6970159e+01 2.21e-04 5.49e-03  -9.2 1.14e-03    -  1.00e+00 1.00e+00h  1
  15  1.6972456e+01 0.00e+00 5.50e-02 -11.0 1.97e-03    -  1.00e+00 5.00e-01h  2
  16  1.6971411e+01 1.21e-04 1.58e-02 -11.0 5.22e-04    -  1.00e+00 1.00e+00h  1

Number of Iterations....: 16

                                   (scaled)                 (unscaled)
Objective...............:   1.6971410556570621e+01    1.6971410556570621e+01
Dual infeasibility......:   1.5782030376156549e-02    1.5782030376156549e-02
Constraint violation....:   1.2062587095847983e-04    1.2062587095847983e-04
Complementarity.........:   1.0315554268897064e-11    1.0315554268897064e-11
Overall NLP error.......:   1.5782030376156549e-02    1.5782030376156549e-02


Number of objective function evaluations             = 21
Number of objective gradient evaluations             = 17
Number of equality constraint evaluations            = 0
Number of inequality constraint evaluations          = 21
Number of equality constraint Jacobian evaluations   = 0
Number of inequality constraint Jacobian evaluations = 17
Number of Lagrangian Hessian evaluations             = 0
Total CPU secs in IPOPT (w/o function evaluations)   =      0.018
Total CPU secs in NLP function evaluations           =    649.507

EXIT: Stopping optimization at current point as requested by user.
